db/inputs/3058227278626431416076222011693514268.smt2
(set-logic QF_FP)
(declare-const x0 (_ FloatingPoint 8 24))
(declare-const x1 (_ FloatingPoint 8 24))
(declare-const x2 (_ FloatingPoint 8 24))
(declare-const x3 (_ FloatingPoint 8 24))
(declare-const x4 (_ FloatingPoint 8 24))
(declare-const x5 (_ FloatingPoint 8 24))
(declare-const x6 (_ FloatingPoint 8 24))
(declare-const x7 (_ FloatingPoint 8 24))
(assert (fp.leq (fp.div RNE x4 x0) (fp.neg x7)))
(assert (fp.leq (fp.mul RNE x1 x1) (fp.sub RNE x0 x6)))
(check-sat)
