db/data/3058227278626431416076222011693514268.z3.out
sat
-------------------
3.427117967
